p cnf 726 530
r 0.165 460 459 485 481 477 490 489 522 521 518 517 514 513 526 525 565 564 563 561 560 559 557 556 555 568 567 0
e 465 469 499 498 503 502 508 507 506 539 538 537 543 542 541 547 546 545 550 549 548 585 584 583 582 589 588 587 586 592 591 590 595 594 593 598 597 596 0
r 0.379 461 473 492 491 497 496 495 510 509 529 528 527 533 532 531 536 535 534 553 552 551 572 571 570 569 575 574 573 578 577 576 581 580 579 602 601 600 599 0
e 603 604 605 606 607 608 609 610 611 612 613 614 615 616 617 618 619 620 621 622 623 624 625 626 627 628 629 630 631 632 633 634 635 636 637 638 639 640 641 642 643 644 645 646 647 648 649 650 651 652 653 654 655 656 657 658 659 660 661 662 663 664 665 666 667 668 669 670 671 672 673 674 675 676 677 678 679 680 681 682 683 684 685 686 687 688 689 690 691 692 693 694 695 696 697 698 699 700 701 702 703 704 705 706 707 708 709 710 711 712 713 714 715 716 717 718 719 720 721 722 723 724 725 726 0
725 726 0
-726 -724 -721 -716 -714 -601 -560 -556 0
-726 -724 -721 -716 -714 -601 -600 -560 0
-726 -724 -721 -716 -714 -601 -600 -556 0
556 560 601 -726 -724 -721 -716 -714 -712 0
560 600 601 -726 -724 -721 -716 -714 -712 0
556 600 601 -726 -724 -721 -716 -714 -712 0
600 601 -726 -724 -721 -716 -714 -712 0
560 601 -726 -724 -721 -716 -714 -711 0
556 601 -726 -724 -721 -716 -714 -711 0
601 711 712 -726 -724 -721 -716 -714 0
556 560 564 600 -726 -724 -721 -716 -713 0
556 560 -726 -724 -721 -716 -713 -600 -564 0
556 600 -726 -724 -721 -716 -713 -564 -560 0
556 564 -726 -724 -721 -716 -713 -600 -560 0
560 600 -726 -724 -721 -716 -713 -564 -556 0
560 564 -726 -724 -721 -716 -713 -600 -556 0
564 600 -726 -724 -721 -716 -713 -560 -556 0
-726 -724 -721 -716 -713 -600 -564 -560 -556 0
713 714 -726 -724 -721 -716 0
709 710 -726 -724 -721 -715 0
-726 -724 -721 -715 -709 -599 -563 -559 -555 0
563 599 -726 -724 -721 -715 -709 -559 -555 0
559 563 -726 -724 -721 -715 -709 -599 -555 0
559 599 -726 -724 -721 -715 -709 -563 -555 0
555 563 -726 -724 -721 -715 -709 -599 -559 0
555 599 -726 -724 -721 -715 -709 -563 -559 0
555 559 -726 -724 -721 -715 -709 -599 -563 0
555 559 563 599 -726 -724 -721 -715 -709 0
600 707 708 -726 -724 -721 -715 -710 0
555 600 -726 -724 -721 -715 -710 -707 0
559 600 -726 -724 -721 -715 -710 -707 0
599 600 -726 -724 -721 -715 -710 -708 0
555 599 600 -726 -724 -721 -715 -710 -708 0
559 599 600 -726 -724 -721 -715 -710 -708 0
555 559 600 -726 -724 -721 -715 -710 -708 0
-726 -724 -721 -715 -710 -600 -599 -555 0
-726 -724 -721 -715 -710 -600 -599 -559 0
-726 -724 -721 -715 -710 -600 -559 -555 0
715 716 -726 -724 -721 0
719 720 -726 -724 -722 0
-726 -724 -722 -719 -601 -565 -561 -557 0
565 601 -726 -724 -722 -719 -561 -557 0
561 565 -726 -724 -722 -719 -601 -557 0
561 601 -726 -724 -722 -719 -565 -557 0
557 565 -726 -724 -722 -719 -601 -561 0
557 601 -726 -724 -722 -719 -565 -561 0
557 561 -726 -724 -722 -719 -601 -565 0
557 561 565 601 -726 -724 -722 -719 0
602 717 718 -726 -724 -722 -720 0
557 602 -726 -724 -722 -720 -717 0
561 602 -726 -724 -722 -720 -717 0
601 602 -726 -724 -722 -720 -718 0
557 601 602 -726 -724 -722 -720 -718 0
561 601 602 -726 -724 -722 -720 -718 0
557 561 602 -726 -724 -722 -720 -718 0
-726 -724 -722 -720 -602 -601 -557 0
-726 -724 -722 -720 -602 -601 -561 0
-726 -724 -722 -720 -602 -561 -557 0
721 722 -726 -724 0
567 568 599 602 -726 -723 0
567 599 -726 -723 -602 -568 0
568 602 -726 -723 -599 -567 0
-726 -723 -602 -599 -568 -567 0
723 724 -726 0
567 -725 -586 0
586 -725 -567 0
568 -725 -589 0
589 -725 -568 0
555 559 -725 -590 0
-725 -590 -559 -555 0
555 590 -725 -559 0
559 590 -725 -555 0
586 590 -725 -563 0
-725 -590 -586 -563 0
563 590 -725 -586 0
563 586 -725 -590 0
555 -725 -591 0
559 -725 -591 0
591 -725 -559 -555 0
590 -725 -592 0
586 -725 -592 0
592 -725 -590 -586 0
591 592 -725 -587 0
587 -725 -591 0
587 -725 -592 0
556 560 -725 -593 0
-725 -593 -560 -556 0
556 593 -725 -560 0
560 593 -725 -556 0
587 593 -725 -564 0
-725 -593 -587 -564 0
564 593 -725 -587 0
564 587 -725 -593 0
556 -725 -594 0
560 -725 -594 0
594 -725 -560 -556 0
593 -725 -595 0
587 -725 -595 0
595 -725 -593 -587 0
594 595 -725 -588 0
588 -725 -594 0
588 -725 -595 0
557 561 -725 -596 0
-725 -596 -561 -557 0
557 596 -725 -561 0
561 596 -725 -557 0
588 596 -725 -565 0
-725 -596 -588 -565 0
565 596 -725 -588 0
565 588 -725 -596 0
557 -725 -597 0
561 -725 -597 0
597 -725 -561 -557 0
596 -725 -598 0
588 -725 -598 0
598 -725 -596 -588 0
597 598 -725 -589 0
589 -725 -597 0
589 -725 -598 0
705 706 0
567 -706 -582 0
582 -706 -567 0
568 -706 -585 0
585 -706 -568 0
563 -706 -582 -559 -555 0
582 -706 -563 -559 -555 0
559 -706 -582 -563 -555 0
559 563 582 -706 -555 0
555 -706 -582 -563 -559 0
555 563 582 -706 -559 0
555 559 563 -706 -582 0
555 559 582 -706 -563 0
555 559 -706 -700 -583 0
559 582 -706 -700 -583 0
555 582 -706 -700 -583 0
582 -706 -700 -583 0
559 -706 -699 -583 0
555 -706 -699 -583 0
699 700 -706 -583 0
583 -706 -559 -555 0
583 -706 -582 -559 0
583 -706 -582 -555 0
564 -706 -583 -560 -556 0
583 -706 -564 -560 -556 0
560 -706 -583 -564 -556 0
560 564 583 -706 -556 0
556 -706 -583 -564 -560 0
556 564 583 -706 -560 0
556 560 564 -706 -583 0
556 560 583 -706 -564 0
556 560 -706 -702 -584 0
560 583 -706 -702 -584 0
556 583 -706 -702 -584 0
583 -706 -702 -584 0
560 -706 -701 -584 0
556 -706 -701 -584 0
701 702 -706 -584 0
584 -706 -560 -556 0
584 -706 -583 -560 0
584 -706 -583 -556 0
565 -706 -584 -561 -557 0
584 -706 -565 -561 -557 0
561 -706 -584 -565 -557 0
561 565 584 -706 -557 0
557 -706 -584 -565 -561 0
557 565 584 -706 -561 0
557 561 565 -706 -584 0
557 561 584 -706 -565 0
557 561 -706 -704 -585 0
561 584 -706 -704 -585 0
557 584 -706 -704 -585 0
584 -706 -704 -585 0
561 -706 -703 -585 0
557 -706 -703 -585 0
703 704 -706 -585 0
585 -706 -561 -557 0
585 -706 -584 -561 0
585 -706 -584 -557 0
576 -705 -698 -695 -686 -683 -681 -679 -678 -570 -564 0
570 -705 -698 -695 -686 -683 -681 -679 -678 -576 -564 0
564 570 576 -705 -698 -695 -686 -683 -681 -679 -678 0
564 -705 -698 -695 -686 -683 -681 -679 -678 -576 -570 0
576 -705 -698 -695 -686 -683 -681 -679 -677 -560 -556 0
556 560 576 -705 -698 -695 -686 -683 -681 -679 -677 0
560 -705 -698 -695 -686 -683 -681 -679 -677 -576 -556 0
556 -705 -698 -695 -686 -683 -681 -679 -677 -576 -560 0
677 678 -705 -698 -695 -686 -683 -681 -679 0
560 577 -705 -698 -695 -686 -683 -681 -680 0
556 577 -705 -698 -695 -686 -683 -681 -680 0
-705 -698 -695 -686 -683 -681 -680 -577 -560 -556 0
679 680 -705 -698 -695 -686 -683 -681 0
570 578 -705 -698 -695 -686 -683 -682 0
576 578 -705 -698 -695 -686 -683 -682 0
-705 -698 -695 -686 -683 -682 -578 -576 -570 0
681 682 -705 -698 -695 -686 -683 0
571 577 578 -705 -698 -695 -686 -684 0
-705 -698 -695 -686 -684 -578 -571 0
-705 -698 -695 -686 -684 -577 -571 0
683 684 -705 -698 -695 -686 0
675 676 -705 -698 -695 -685 0
-705 -698 -695 -685 -676 -574 -570 0
-705 -698 -695 -685 -676 -575 -570 0
570 574 575 -705 -698 -695 -685 -676 0
673 674 -705 -698 -695 -685 -675 0
-705 -698 -695 -685 -675 -674 -575 -573 -569 0
573 575 -705 -698 -695 -685 -675 -674 0
569 575 -705 -698 -695 -685 -675 -674 0
671 672 -705 -698 -695 -685 -675 -673 0
-705 -698 -695 -685 -675 -673 -672 -574 -559 -555 0
555 574 -705 -698 -695 -685 -675 -673 -672 0
559 574 -705 -698 -695 -685 -675 -673 -672 0
669 670 -705 -698 -695 -685 -675 -673 -671 0
555 -705 -698 -695 -685 -675 -673 -671 -669 -573 -559 0
559 -705 -698 -695 -685 -675 -673 -671 -669 -573 -555 0
555 559 573 -705 -698 -695 -685 -675 -673 -671 -669 0
573 -705 -698 -695 -685 -675 -673 -671 -669 -559 -555 0
563 -705 -698 -695 -685 -675 -673 -671 -670 -573 -569 0
563 569 573 -705 -698 -695 -685 -675 -673 -671 -670 0
569 -705 -698 -695 -685 -675 -673 -671 -670 -573 -563 0
573 -705 -698 -695 -685 -675 -673 -671 -670 -569 -563 0
685 686 -705 -698 -695 0
693 694 -705 -698 -696 0
-705 -698 -696 -694 -580 -572 0
-705 -698 -696 -694 -581 -572 0
572 580 581 -705 -698 -696 -694 0
691 692 -705 -698 -696 -693 0
-705 -698 -696 -693 -692 -581 -579 -571 0
579 581 -705 -698 -696 -693 -692 0
571 581 -705 -698 -696 -693 -692 0
689 690 -705 -698 -696 -693 -691 0
-705 -698 -696 -693 -691 -690 -580 -561 -557 0
557 580 -705 -698 -696 -693 -691 -690 0
561 580 -705 -698 -696 -693 -691 -690 0
687 688 -705 -698 -696 -693 -691 -689 0
557 -705 -698 -696 -693 -691 -689 -687 -579 -561 0
561 -705 -698 -696 -693 -691 -689 -687 -579 -557 0
557 561 579 -705 -698 -696 -693 -691 -689 -687 0
579 -705 -698 -696 -693 -691 -689 -687 -561 -557 0
565 -705 -698 -696 -693 -691 -689 -688 -579 -571 0
565 571 579 -705 -698 -696 -693 -691 -689 -688 0
571 -705 -698 -696 -693 -691 -689 -688 -579 -565 0
579 -705 -698 -696 -693 -691 -689 -688 -571 -565 0
695 696 -705 -698 0
567 568 569 572 -705 -697 0
567 569 -705 -697 -572 -568 0
568 572 -705 -697 -569 -567 0
-705 -697 -572 -569 -568 -567 0
697 698 -705 0
667 668 0
-668 -666 -664 -662 -553 -518 -514 0
-668 -666 -664 -662 -553 -552 -518 0
-668 -666 -664 -662 -553 -552 -514 0
514 518 553 -668 -666 -664 -662 -660 0
518 552 553 -668 -666 -664 -662 -660 0
514 552 553 -668 -666 -664 -662 -660 0
552 553 -668 -666 -664 -662 -660 0
518 553 -668 -666 -664 -662 -659 0
514 553 -668 -666 -664 -662 -659 0
553 659 660 -668 -666 -664 -662 0
514 518 522 552 -668 -666 -664 -661 0
514 518 -668 -666 -664 -661 -552 -522 0
514 552 -668 -666 -664 -661 -522 -518 0
514 522 -668 -666 -664 -661 -552 -518 0
518 552 -668 -666 -664 -661 -522 -514 0
518 522 -668 -666 -664 -661 -552 -514 0
522 552 -668 -666 -664 -661 -518 -514 0
-668 -666 -664 -661 -552 -522 -518 -514 0
661 662 -668 -666 -664 0
657 658 -668 -666 -663 0
-668 -666 -663 -657 -551 -521 -517 -513 0
521 551 -668 -666 -663 -657 -517 -513 0
517 521 -668 -666 -663 -657 -551 -513 0
517 551 -668 -666 -663 -657 -521 -513 0
513 521 -668 -666 -663 -657 -551 -517 0
513 551 -668 -666 -663 -657 -521 -517 0
513 517 -668 -666 -663 -657 -551 -521 0
513 517 521 551 -668 -666 -663 -657 0
552 655 656 -668 -666 -663 -658 0
513 552 -668 -666 -663 -658 -655 0
517 552 -668 -666 -663 -658 -655 0
551 552 -668 -666 -663 -658 -656 0
513 551 552 -668 -666 -663 -658 -656 0
517 551 552 -668 -666 -663 -658 -656 0
513 517 552 -668 -666 -663 -658 -656 0
-668 -666 -663 -658 -552 -551 -513 0
-668 -666 -663 -658 -552 -551 -517 0
-668 -666 -663 -658 -552 -517 -513 0
663 664 -668 -666 0
525 526 551 553 -668 -665 0
525 551 -668 -665 -553 -526 0
526 553 -668 -665 -551 -525 0
-668 -665 -553 -551 -526 -525 0
665 666 -668 0
525 -667 -541 0
541 -667 -525 0
526 -667 -543 0
543 -667 -526 0
513 517 -667 -545 0
-667 -545 -517 -513 0
513 545 -667 -517 0
517 545 -667 -513 0
541 545 -667 -521 0
-667 -545 -541 -521 0
521 545 -667 -541 0
521 541 -667 -545 0
513 -667 -546 0
517 -667 -546 0
546 -667 -517 -513 0
545 -667 -547 0
541 -667 -547 0
547 -667 -545 -541 0
546 547 -667 -542 0
542 -667 -546 0
542 -667 -547 0
514 518 -667 -548 0
-667 -548 -518 -514 0
514 548 -667 -518 0
518 548 -667 -514 0
542 548 -667 -522 0
-667 -548 -542 -522 0
522 548 -667 -542 0
522 542 -667 -548 0
514 -667 -549 0
518 -667 -549 0
549 -667 -518 -514 0
548 -667 -550 0
542 -667 -550 0
550 -667 -548 -542 0
549 550 -667 -543 0
543 -667 -549 0
543 -667 -550 0
653 654 0
525 -654 -537 0
537 -654 -525 0
526 -654 -539 0
539 -654 -526 0
521 -654 -537 -517 -513 0
537 -654 -521 -517 -513 0
517 -654 -537 -521 -513 0
517 521 537 -654 -513 0
513 -654 -537 -521 -517 0
513 521 537 -654 -517 0
513 517 521 -654 -537 0
513 517 537 -654 -521 0
513 517 -654 -650 -538 0
517 537 -654 -650 -538 0
513 537 -654 -650 -538 0
537 -654 -650 -538 0
517 -654 -649 -538 0
513 -654 -649 -538 0
649 650 -654 -538 0
538 -654 -517 -513 0
538 -654 -537 -517 0
538 -654 -537 -513 0
522 -654 -538 -518 -514 0
538 -654 -522 -518 -514 0
518 -654 -538 -522 -514 0
518 522 538 -654 -514 0
514 -654 -538 -522 -518 0
514 522 538 -654 -518 0
514 518 522 -654 -538 0
514 518 538 -654 -522 0
514 518 -654 -652 -539 0
518 538 -654 -652 -539 0
514 538 -654 -652 -539 0
538 -654 -652 -539 0
518 -654 -651 -539 0
514 -654 -651 -539 0
651 652 -654 -539 0
539 -654 -518 -514 0
539 -654 -538 -518 0
539 -654 -538 -514 0
534 -653 -648 -646 -643 -641 -639 -638 -528 -522 0
528 -653 -648 -646 -643 -641 -639 -638 -534 -522 0
522 528 534 -653 -648 -646 -643 -641 -639 -638 0
522 -653 -648 -646 -643 -641 -639 -638 -534 -528 0
534 -653 -648 -646 -643 -641 -639 -637 -518 -514 0
514 518 534 -653 -648 -646 -643 -641 -639 -637 0
518 -653 -648 -646 -643 -641 -639 -637 -534 -514 0
514 -653 -648 -646 -643 -641 -639 -637 -534 -518 0
637 638 -653 -648 -646 -643 -641 -639 0
518 535 -653 -648 -646 -643 -641 -640 0
514 535 -653 -648 -646 -643 -641 -640 0
-653 -648 -646 -643 -641 -640 -535 -518 -514 0
639 640 -653 -648 -646 -643 -641 0
528 536 -653 -648 -646 -643 -642 0
534 536 -653 -648 -646 -643 -642 0
-653 -648 -646 -643 -642 -536 -534 -528 0
641 642 -653 -648 -646 -643 0
529 535 536 -653 -648 -646 -644 0
-653 -648 -646 -644 -536 -529 0
-653 -648 -646 -644 -535 -529 0
643 644 -653 -648 -646 0
635 636 -653 -648 -645 0
-653 -648 -645 -636 -532 -528 0
-653 -648 -645 -636 -533 -528 0
528 532 533 -653 -648 -645 -636 0
633 634 -653 -648 -645 -635 0
-653 -648 -645 -635 -634 -533 -531 -527 0
531 533 -653 -648 -645 -635 -634 0
527 533 -653 -648 -645 -635 -634 0
631 632 -653 -648 -645 -635 -633 0
-653 -648 -645 -635 -633 -632 -532 -517 -513 0
513 532 -653 -648 -645 -635 -633 -632 0
517 532 -653 -648 -645 -635 -633 -632 0
629 630 -653 -648 -645 -635 -633 -631 0
513 -653 -648 -645 -635 -633 -631 -629 -531 -517 0
517 -653 -648 -645 -635 -633 -631 -629 -531 -513 0
513 517 531 -653 -648 -645 -635 -633 -631 -629 0
531 -653 -648 -645 -635 -633 -631 -629 -517 -513 0
521 -653 -648 -645 -635 -633 -631 -630 -531 -527 0
521 527 531 -653 -648 -645 -635 -633 -631 -630 0
527 -653 -648 -645 -635 -633 -631 -630 -531 -521 0
531 -653 -648 -645 -635 -633 -631 -630 -527 -521 0
645 646 -653 -648 0
525 526 527 529 -653 -647 0
525 527 -653 -647 -529 -526 0
526 529 -653 -647 -527 -525 0
-653 -647 -529 -527 -526 -525 0
647 648 -653 0
627 628 0
-628 -626 -624 -510 -481 -477 0
-628 -626 -624 -510 -509 -481 0
-628 -626 -624 -510 -509 -477 0
477 481 510 -628 -626 -624 -622 0
481 509 510 -628 -626 -624 -622 0
477 509 510 -628 -626 -624 -622 0
509 510 -628 -626 -624 -622 0
481 510 -628 -626 -624 -621 0
477 510 -628 -626 -624 -621 0
510 621 622 -628 -626 -624 0
477 481 485 509 -628 -626 -623 0
477 481 -628 -626 -623 -509 -485 0
477 509 -628 -626 -623 -485 -481 0
477 485 -628 -626 -623 -509 -481 0
481 509 -628 -626 -623 -485 -477 0
481 485 -628 -626 -623 -509 -477 0
485 509 -628 -626 -623 -481 -477 0
-628 -626 -623 -509 -485 -481 -477 0
623 624 -628 -626 0
489 490 509 510 -628 -625 0
489 509 -628 -625 -510 -490 0
490 510 -628 -625 -509 -489 0
-628 -625 -510 -509 -490 -489 0
625 626 -628 0
489 -627 -502 0
502 -627 -489 0
490 -627 -503 0
503 -627 -490 0
477 481 -627 -506 0
-627 -506 -481 -477 0
477 506 -627 -481 0
481 506 -627 -477 0
502 506 -627 -485 0
-627 -506 -502 -485 0
485 506 -627 -502 0
485 502 -627 -506 0
477 -627 -507 0
481 -627 -507 0
507 -627 -481 -477 0
506 -627 -508 0
502 -627 -508 0
508 -627 -506 -502 0
507 508 -627 -503 0
503 -627 -507 0
503 -627 -508 0
619 620 0
489 -620 -498 0
498 -620 -489 0
490 -620 -499 0
499 -620 -490 0
485 -620 -498 -481 -477 0
498 -620 -485 -481 -477 0
481 -620 -498 -485 -477 0
481 485 498 -620 -477 0
477 -620 -498 -485 -481 0
477 485 498 -620 -481 0
477 481 485 -620 -498 0
477 481 498 -620 -485 0
477 481 -620 -618 -499 0
481 498 -620 -618 -499 0
477 498 -620 -618 -499 0
498 -620 -618 -499 0
481 -620 -617 -499 0
477 -620 -617 -499 0
617 618 -620 -499 0
499 -620 -481 -477 0
499 -620 -498 -481 0
499 -620 -498 -477 0
459 -604 -465 0
465 -604 -459 0
460 -604 -465 0
465 -604 -460 0
459 460 461 -603 0
-603 -461 -460 -459 0
603 604 0
469 -605 -460 0
460 -605 -469 0
469 -605 -459 0
459 -605 -469 0
459 460 473 -606 0
-606 -473 -460 -459 0
605 606 0
615 616 -619 0
-619 -615 -492 -491 -490 -489 0
490 492 -619 -615 -491 -489 0
489 491 -619 -615 -492 -490 0
489 490 491 492 -619 -615 0
613 614 -619 -616 0
-619 -616 -614 -496 -492 0
-619 -616 -614 -497 -492 0
492 496 497 -619 -616 -614 0
611 612 -619 -616 -613 0
-619 -616 -613 -612 -497 -495 -491 0
495 497 -619 -616 -613 -612 0
491 497 -619 -616 -613 -612 0
609 610 -619 -616 -613 -611 0
-619 -616 -613 -611 -610 -496 -481 -477 0
477 496 -619 -616 -613 -611 -610 0
481 496 -619 -616 -613 -611 -610 0
607 608 -619 -616 -613 -611 -609 0
477 -619 -616 -613 -611 -609 -607 -495 -481 0
481 -619 -616 -613 -611 -609 -607 -495 -477 0
477 481 495 -619 -616 -613 -611 -609 -607 0
495 -619 -616 -613 -611 -609 -607 -481 -477 0
485 -619 -616 -613 -611 -609 -608 -495 -491 0
485 491 495 -619 -616 -613 -611 -609 -608 0
491 -619 -616 -613 -611 -609 -608 -495 -485 0
495 -619 -616 -613 -611 -609 -608 -491 -485 0
